solution status: optimal solution found
objective value:                                    0
$_19_y                                             17 	(obj:0)
$_19_z                                              9 	(obj:0)
$_11__0_y                                          14 	(obj:0)
$_11__0_z                                          16 	(obj:0)
$_14__0_y                                          19 	(obj:0)
$_14__0_z                                          17 	(obj:0)
$_12__0_y                                          13 	(obj:0)
$_12__0_z                                          12 	(obj:0)
$_17_y                                             19 	(obj:0)
$_17_z                                             10 	(obj:0)
$_34_y                                             19 	(obj:0)
$_34_z                                              9 	(obj:0)
$_20_y                                             18 	(obj:0)
$_20_z                                              6 	(obj:0)
$_15__0_y                                          19 	(obj:0)
$_15__0_z                                           4 	(obj:0)
$_13__0_y                                          19 	(obj:0)
$_13__0_z                                          14 	(obj:0)
$_16__0_y                                          19 	(obj:0)
$_16__0_z                                          11 	(obj:0)
$_56_y                                             18 	(obj:0)
$_56_z                                              5 	(obj:0)
$_18_y                                             17 	(obj:0)
$_18_z                                             14 	(obj:0)
